142899 
90498 55
23
1
0
2
3
4
22
21
25
24
46
45
47
48
44
53
54
42
43
28
29
30
31
19
20
5
6
7
8
9
10
13
17
37
35
40
60
61
62
63
73
71
65
66
51
56
58
55
52
49
50
69
68
67
70

52401 21
14
74
15
16
12
11
18
36
38
39
72
64
57
59
41
34
33
32
27
26
75

